
letting m = 10
letting n = 8
letting r = 5

letting demand =
        [[0,1,1,1,0,0,0,0],
         [0,0,0,0,0,0,1,1],
         [0,0,0,1,0,1,0,0],
         [0,0,0,0,0,0,0,0],
         [0,0,0,0,0,1,1,0],
         [0,0,0,0,0,0,1,1],
         [0,0,0,0,0,0,0,0],
         [0,0,0,0,0,0,0,0]]


